10.73 0.11 3.04 27.39 0.26 3.8 16.56 0.25 2.61 15.47 0.17 2.01 12.08 0.12 2.85 23.63 0.18 2.35
21.78 0.24 4.98 22.78 0.15 4.23 22.33 0.14 2.69 14.28 0.23 3.9 14.25 0.11 4.17 10.16 0.15 2.76
29.8 0.12 4.96 19.16 0.29 2.99 13.45 0.2 4.23 21.39 0.11 2.02 29.64 0.25 2.37 23.95 0.12 3.62
17.46 0.17 2.61 26.62 0.29 4.44 22.38 0.28 4.95 21.78 0.29 4.48 24.62 0.26 4.86 11.16 0.3 3.42
15.09 0.23 4.56 18.43 0.11 3.32 25.17 0.12 3.3 20.25 0.13 2.01 21.96 0.19 4.46 24.28 0.14 3.5
